(set-logic QF_S)
(declare-fun var0 () String)
(assert (str.in.re var0 (re.++ (re.union (re.* (re.union (re.union (re.union (re.* (re.+ (re.+ (re.+ (re.+ (re.union (str.to.re "0") (str.to.re "111"))))))) (re.* (re.* (re.union (re.* (re.union (re.* (str.to.re "222")) (re.* (str.to.re "333")))) (re.* (re.* (re.* (str.to.re "444")))))))) (re.union (re.union (re.+ (re.* (re.* (re.* (re.union (str.to.re "555") (str.to.re "66")))))) (re.+ (re.* (re.+ (re.* (re.union (str.to.re "77") (str.to.re "888"))))))) (re.union (re.union (re.union (re.* (re.union (re.+ (str.to.re "999")) (re.+ (str.to.re "aaa")))) (re.* (re.union (re.* (str.to.re "bbb")) (re.* (str.to.re "cc"))))) (re.union (re.* (re.union (re.* (str.to.re "dd")) (re.* (str.to.re "ee")))) (re.* (re.+ (re.* (str.to.re "ff")))))) (re.union (re.* (re.* (re.* (re.+ (str.to.re "gg"))))) (re.* (re.+ (re.* (re.* (str.to.re "hhh"))))))))) (re.union (re.union (re.* (re.union (re.+ (re.union (re.* (re.* (str.to.re "ii"))) (re.* (re.union (str.to.re "jj") (str.to.re "kkk"))))) (re.+ (re.* (re.* (re.* (str.to.re "l"))))))) (re.* (re.+ (re.* (re.union (re.union (re.+ (str.to.re "mm")) (re.+ (str.to.re "n"))) (re.union (re.union (str.to.re "o") (str.to.re "ppp")) (re.union (str.to.re "qqq") (str.to.re "rrr")))))))) (re.union (re.* (re.* (re.+ (re.+ (re.+ (re.* (str.to.re "ss"))))))) (re.* (re.* (re.union (re.+ (re.+ (re.union (str.to.re "t") (str.to.re "uu")))) (re.+ (re.* (re.union (str.to.re "vvv") (str.to.re "ww"))))))))))) (re.* (re.* (re.union (re.* (re.* (re.+ (re.union (re.+ (re.* (re.union (str.to.re "xx") (str.to.re "yy")))) (re.+ (re.union (re.+ (str.to.re "zz")) (re.+ (str.to.re "AAA")))))))) (re.* (re.union (re.union (re.* (re.union (re.* (re.union (str.to.re "BB") (str.to.re "C"))) (re.* (re.+ (str.to.re "D"))))) (re.* (re.+ (re.union (re.union (str.to.re "E") (str.to.re "F")) (re.union (str.to.re "G") (str.to.re "HH")))))) (re.union (re.union (re.union (re.+ (re.union (str.to.re "II") (str.to.re "JJ"))) (re.+ (re.union (str.to.re "K") (str.to.re "LL")))) (re.union (re.+ (re.+ (str.to.re "MMM"))) (re.+ (re.* (str.to.re "NN"))))) (re.union (re.+ (re.union (re.* (str.to.re "OOO")) (re.* (str.to.re "PP")))) (re.+ (re.* (re.+ (str.to.re "QQQ")))))))))))) (re.* (re.union (re.+ (re.* (re.union (re.+ (re.+ (re.* (re.* (re.* (re.union (str.to.re "RRR") (str.to.re "SS"))))))) (re.+ (re.union (re.+ (re.+ (re.union (re.+ (str.to.re "TTT")) (re.+ (str.to.re "UUU"))))) (re.+ (re.union (re.+ (re.+ (str.to.re "VV"))) (re.+ (re.+ (str.to.re "W")))))))))) (re.+ (re.+ (re.+ (re.* (re.+ (re.union (re.* (re.* (re.+ (str.to.re "XX")))) (re.* (re.* (re.* (str.to.re "Y")))))))))))))))
(assert (<= 15 (str.len var0)))
(check-sat)